/*********************************************
 * OPL 12.6.0.0 Data
 * Author: Adrian Rodriguez Bazaga, Pau Rodriguez Esmerats
 * Creation Date: 10/12/2017 at 07:27:30
 *********************************************/

maxConsec=8;
maxPresence=16;
maxHours=10;
minHours=2;
hours=24;
demand= [26 34 34 27 30 30 29 33 21 27 27 23 20 15 10 4 3 1 3 2 2 2 1 2  ];
nNurses=48;
